0076	0
0007	0
0031	0
0054	0
0049	0
0006	0
0008	0
0005	0
0009	1
0074	1
0016	1
0018	1
0055	1
0065	1
0043	1
0077	2
0038	2
0060	2
0047	2
0025	2
0042	3
0029	3
0010	3
0036	3
0028	3
0081	4
0072	4
0056	4
0024	4
0079	5
0011	5
0037	5
0063	6
0059	6
0045	6
0023	6
0012	7
0066	7
0026	7
0068	7
0001	8
0014	8
0040	8
0015	8
0071	8
0075	9
0030	9
0046	9
0080	10
0070	10
0017	10
0062	10
0002	11
0033	11
0057	11
0041	11
0027	12
0069	12
0053	12
0078	13
0019	13
0064	13
0050	13
0004	14
0022	14
0044	14
0035	14
0073	15
0021	15
0048	15
0003	16
0020	16
0058	16
0051	16
0052	17
0032	17
0067	17
0013	17
0034	17
0039	17
0061	17
